namespace data1 {
    set N := 1 2 ;

    set M := 1 2 ;

    param c :=
    1 1
    2 2 ;

    param a :=
    1 1 3
    2 1 4
    1 2 2
    2 2 5 ;

    param b :=
    1 1
    2 2 ;
}

namespace data2 {
    set N := 3 4 ;

    set M := 5 6 ;

    param c :=
    3 10
    4 20 ;

    param a :=
    3 5 3
    4 5 4
    3 6 2
    4 6 5 ;

    param b :=
    5 1
    6 2 ;
}
